p edge 30 41 10
v 3 5 6 28
v 4 7 13 26 29
v 3 12 20 23
v 3 1 16 24
v 2 22 25
v 2 2 17
v 2 11 18
v 3 19 21 30
v 4 8 14 15 27
v 4 3 4 9 10
e 1 6
e 1 15
e 1 22
e 2 15
e 2 29
e 3 6
e 3 14
e 3 15
e 3 17
e 4 10
e 4 20
e 4 23
e 4 29
e 6 8
e 6 27
e 7 12
e 7 17
e 7 23
e 8 12
e 8 20
e 8 25
e 8 27
e 9 16
e 11 16
e 11 22
e 12 28
e 13 22
e 14 22
e 15 18
e 15 26
e 15 27
e 16 19
e 16 22
e 18 22
e 18 23
e 19 28
e 21 23
e 22 25
e 22 27
e 22 28
e 23 25
